c FILE /home/rafael/Documents/HappySet/MIHS/inputs/happygen/output/graph_scale_free_k7_p0.2_v50_20241127_082455.txt
c SOURCE This is a scale-free graph formed for the happy graph colouring problem.
c DESCRIPTION It was generated using the problem generator of Rhyd Lewis
c
c GRAPH STATS
c Seed                             = 560936655
c Number of Nodes                  = 50
c Number of colours k              = 7
c Number of pre-assignments        = 10
c Number of links per new node     = 5
c Density                          = 0.191837
c 
c The degrees of nodes 1 to 50, respectively, are as follows 
c [21, 21, 20, 19, 18, 17, 17, 16, 15, 14, 13, 13, 12, 12, 11, 11, 11, 10, 9, 9, 8, 8, 8, 8, 7, 7, 
c  7, 7, 6, 6, 6, 6, 6, 6, 6, 6, 6, 6, 6, 5, 5, 5, 5, 5, 5, 5, 5, 5, 5, 5] 
c  
p edge 50 235 7
e 1 3
e 1 4
e 1 5
e 1 6
e 1 8
e 1 9
e 1 11
e 1 12
e 1 18
e 1 19
e 1 22
e 1 23
e 1 26
e 1 31
e 1 34
e 1 35
e 1 36
e 1 37
e 1 42
e 1 45
e 1 47
e 2 3
e 2 5
e 2 6
e 2 8
e 2 9
e 2 10
e 2 11
e 2 13
e 2 19
e 2 20
e 2 21
e 2 22
e 2 23
e 2 25
e 2 27
e 2 28
e 2 30
e 2 40
e 2 41
e 2 48
e 2 49
e 3 4
e 3 5
e 3 8
e 3 9
e 3 10
e 3 11
e 3 12
e 3 13
e 3 15
e 3 16
e 3 18
e 3 21
e 3 28
e 3 30
e 3 31
e 3 37
e 3 43
e 3 49
e 4 5
e 4 6
e 4 8
e 4 10
e 4 11
e 4 16
e 4 18
e 4 19
e 4 22
e 4 28
e 4 30
e 4 33
e 4 34
e 4 39
e 4 43
e 4 44
e 4 45
e 5 6
e 5 7
e 5 8
e 5 11
e 5 15
e 5 19
e 5 20
e 5 24
e 5 27
e 5 28
e 5 29
e 5 31
e 5 39
e 5 46
e 6 8
e 6 11
e 6 12
e 6 13
e 6 14
e 6 15
e 6 16
e 6 18
e 6 29
e 6 34
e 6 42
e 6 45
e 6 48
e 7 8
e 7 10
e 7 11
e 7 13
e 7 14
e 7 15
e 7 16
e 7 20
e 7 21
e 7 22
e 7 25
e 7 31
e 7 36
e 7 38
e 7 40
e 7 46
e 8 9
e 8 10
e 8 11
e 8 15
e 8 17
e 8 26
e 8 32
e 8 36
e 8 40
e 9 26
e 9 27
e 9 29
e 9 32
e 9 33
e 9 37
e 9 39
e 9 44
e 9 45
e 9 47
e 9 48
e 10 14
e 10 15
e 10 17
e 10 18
e 10 21
e 10 22
e 10 24
e 10 46
e 10 47
e 11 14
e 11 18
e 11 25
e 11 31
e 11 44
e 12 18
e 12 19
e 12 24
e 12 25
e 12 26
e 12 27
e 12 34
e 12 35
e 12 36
e 12 44
e 13 15
e 13 17
e 13 21
e 13 26
e 13 30
e 13 35
e 13 49
e 13 50
e 14 17
e 14 18
e 14 20
e 14 29
e 14 32
e 14 33
e 14 40
e 14 47
e 15 16
e 15 29
e 15 32
e 15 35
e 16 20
e 16 38
e 16 40
e 16 42
e 16 44
e 16 50
e 17 19
e 17 23
e 17 24
e 17 30
e 17 41
e 17 42
e 17 47
e 18 19
e 18 23
e 19 29
e 19 33
e 20 39
e 20 41
e 20 46
e 20 50
e 21 33
e 21 41
e 21 45
e 22 24
e 22 25
e 22 43
e 23 26
e 23 34
e 23 42
e 23 49
e 24 28
e 24 36
e 24 41
e 25 39
e 25 48
e 26 38
e 27 31
e 27 32
e 27 38
e 28 43
e 28 48
e 30 35
e 32 38
e 33 49
e 34 37
e 35 43
e 36 37
e 37 46
e 38 50
e 39 50
n 8 4
n 20 2
n 21 6
n 23 1
n 24 3
n 30 4
n 38 5
n 40 4
n 43 7
n 49 1
